c preprocessed version of BN_116, 43 vertices, 649 edges
p td 43 649
0 1
0 15
0 11
0 6
0 3
0 12
0 14
0 4
0 19
0 7
2 0
5 0
8 0
10 0
21 0
23 0
16 0
18 0
20 0
13 0
24 0
2 1
5 1
23 1
16 1
20 1
24 1
2 3
2 4
2 6
2 7
2 11
2 12
2 17
5 2
8 2
10 2
23 2
16 2
18 2
20 2
13 2
24 2
3 4
5 3
23 3
16 3
18 3
5 4
16 4
5 6
5 9
5 7
5 11
5 14
5 15
5 19
8 5
10 5
21 5
22 5
23 5
16 5
18 5
20 5
13 5
24 5
6 7
8 6
23 6
16 6
18 6
20 6
8 7
16 7
18 7
20 7
8 9
8 11
8 10
8 14
8 15
8 17
8 19
8 21
8 22
23 8
16 8
18 8
20 8
13 8
24 8
10 9
21 9
22 9
16 9
18 9
13 9
10 11
10 12
10 14
10 15
10 21
10 22
23 10
16 10
18 10
20 10
13 10
24 10
11 12
20 11
13 11
13 12
13 14
13 15
13 17
13 19
13 21
13 22
23 13
16 13
18 13
20 13
13 24
15 14
14 19
18 14
20 14
16 15
18 15
20 15
16 17
16 21
16 22
23 16
16 18
16 20
16 24
18 17
20 17
18 19
18 21
18 22
23 18
18 24
18 20
20 19
20 21
20 22
23 20
20 24
21 22
23 21
24 21
23 22
24 22
23 24
25 8
25 10
25 0
25 33
25 21
25 22
25 9
25 1
25 39
25 40
25 3
25 41
25 4
25 11
25 12
25 17
25 14
25 15
25 30
25 34
25 28
25 32
25 13
25 2
25 20
25 5
25 23
25 26
25 27
25 16
25 18
25 29
25 42
25 31
25 35
25 36
25 38
25 24
25 37
26 23
26 27
26 16
26 18
26 20
26 29
26 42
26 30
26 31
26 33
26 34
26 13
26 37
26 38
26 24
26 0
26 39
26 40
26 41
26 28
26 2
26 9
26 5
26 6
26 7
26 11
26 12
26 17
26 35
26 1
26 8
26 10
26 36
26 32
26 21
26 22
27 23
27 8
27 10
27 5
27 0
27 31
27 33
27 38
27 24
27 21
27 22
27 39
27 40
27 3
27 41
27 4
27 11
27 12
27 6
27 7
27 17
27 15
27 16
27 30
27 34
27 36
27 37
27 28
27 18
27 29
27 42
27 32
27 13
27 35
27 2
27 20
28 0
28 39
28 40
28 3
28 41
28 4
28 11
28 17
28 2
28 5
28 35
28 8
28 10
28 32
28 36
28 23
28 16
28 18
28 20
28 29
28 42
28 30
28 31
28 33
28 34
28 13
28 37
28 38
29 23
29 16
29 18
29 20
29 8
29 10
29 0
29 21
29 22
29 30
29 40
29 39
29 41
29 3
29 4
29 32
29 6
29 7
29 2
29 11
29 12
29 14
29 15
29 37
29 38
29 5
29 42
29 31
29 33
29 34
29 13
29 35
29 36
29 24
30 42
30 23
30 16
30 18
30 20
30 8
30 10
30 0
30 21
30 22
30 9
30 1
30 39
30 40
30 3
30 41
30 4
30 11
30 6
30 17
30 14
30 15
30 32
30 2
30 38
30 37
30 5
30 31
30 33
30 34
30 13
30 35
30 36
30 24
31 42
31 23
31 16
31 18
31 20
31 8
31 10
31 5
31 0
31 33
31 38
31 24
31 21
31 22
31 39
31 15
31 11
31 40
31 6
31 3
31 9
31 12
31 41
31 14
31 4
31 7
31 34
31 36
31 37
31 32
31 13
31 35
31 2
32 42
32 0
32 39
32 40
32 3
32 41
32 4
32 2
32 6
32 5
32 9
32 35
32 10
32 14
32 15
32 8
32 7
32 17
32 19
32 21
32 22
32 36
32 23
32 16
32 18
32 20
32 33
32 34
32 13
32 37
32 38
32 24
33 42
33 23
33 16
33 18
33 20
33 8
33 10
33 5
33 0
33 21
33 22
33 39
33 1
33 15
33 40
33 3
33 9
33 17
33 41
33 14
33 4
33 19
33 34
33 13
33 2
33 35
33 36
33 38
33 24
33 37
34 42
34 23
34 16
34 18
34 20
34 0
34 39
34 40
34 3
34 41
34 2
34 9
34 5
34 6
34 7
34 37
34 11
34 17
34 13
34 35
34 8
34 10
34 36
34 38
34 24
34 21
34 22
35 42
35 0
35 39
35 40
35 3
35 41
35 4
35 2
35 6
35 5
35 9
35 11
35 12
35 14
35 17
35 1
35 19
35 8
35 10
35 36
35 21
35 22
35 23
35 16
35 18
35 20
35 13
35 37
35 38
35 24
36 42
36 0
36 39
36 40
36 3
36 41
36 4
36 2
36 6
36 5
36 11
36 12
36 10
36 14
36 8
36 7
36 17
36 1
36 19
36 21
36 22
36 23
36 16
36 18
36 20
36 13
36 37
36 38
36 24
37 42
37 23
37 16
37 18
37 20
37 13
37 0
37 39
37 40
37 3
37 41
37 4
37 2
37 5
37 6
37 7
37 1
37 11
37 12
37 14
37 15
37 19
37 17
37 8
37 10
37 38
37 24
37 21
37 22
38 42
38 23
38 16
38 18
38 20
38 13
38 8
38 10
38 0
38 21
38 22
38 9
38 40
38 39
38 41
38 3
38 4
38 6
38 2
38 11
38 12
38 17
38 5
38 24
39 42
39 0
39 40
39 41
39 5
39 23
39 16
39 18
39 13
40 42
40 0
40 3
40 41
40 4
40 2
40 5
40 10
40 23
40 16
40 18
40 20
41 42
41 0
41 3
41 4
41 2
41 5
41 10
41 16
42 0
42 2
42 6
42 5
42 9
42 11
42 12
42 10
42 14
42 15
42 8
42 7
42 19
42 21
42 22
42 23
42 16
42 18
42 20
42 13
42 24
